3	25
53	986	552	757	39	732	228	60	479	249	710	525	196	559	662	136	599	363	555	903	52	551	535	59	625	
490	362	346	877	240	987	360	79	184	347	287	446	266	412	426	235	581	16	897	464	295	623	145	998	244	
884	884	884	
